Version identifier: 20.1.0.0 | 2020-11-10 | 9bedb6d68
Tried aggregator 2 times.
MIP Presolve eliminated 1377 rows and 779 columns.
MIP Presolve modified 2609 coefficients.
Aggregator did 138 substitutions.
Reduced MIP has 1041 rows, 890 columns, and 3294 nonzeros.
Reduced MIP has 232 binaries, 658 generals, 0 SOSs, and 0 indicators.
Presolve time = 0.01 sec. (5.47 ticks)
Found incumbent of value 63.000000 after 0.02 sec. (9.51 ticks)
Probing fixed 30 vars, tightened 264 bounds.
Probing time = 0.00 sec. (0.97 ticks)
Tried aggregator 2 times.
Detecting symmetries...
MIP Presolve eliminated 430 rows and 59 columns.
MIP Presolve modified 88 coefficients.
Aggregator did 19 substitutions.
Reduced MIP has 592 rows, 812 columns, and 1919 nonzeros.
Reduced MIP has 287 binaries, 525 generals, 0 SOSs, and 0 indicators.
Presolve time = 0.01 sec. (2.83 ticks)
Probing time = 0.00 sec. (0.15 ticks)
Clique table members: 1.
MIP emphasis: balance optimality and feasibility.
MIP search method: dynamic search.
Parallel mode: deterministic, using up to 24 threads.
Root relaxation solution time = 0.00 sec. (1.80 ticks)

        Nodes                                         Cuts/
   Node  Left     Objective  IInf  Best Integer    Best Bound    ItCnt     Gap

*     0+    0                           63.0000        0.0000           100.00%
      0     0        0.2000    40       63.0000        0.2000      202   99.68%
      0     0        2.5000   145       63.0000     Cuts: 116      394   96.03%
*     0+    0                           24.0000        2.5000            89.58%
      0     0        3.4000   103       24.0000      Cuts: 57      486   85.83%
      0     0        4.0000    77       24.0000      Cuts: 53      524   83.33%
      0     0        4.0000   135       24.0000      Cuts: 41      558   83.33%
      0     0        4.3333   103       24.0000      Cuts: 50      606   81.94%
      0     0        4.3633   190       24.0000      Cuts: 39      741   81.82%
      0     0        4.4167   159       24.0000      Cuts: 93      795   81.60%
      0     0        4.8810   176       24.0000      Cuts: 65      897   79.66%
      0     0        5.3333   175       24.0000      Cuts: 96      990   77.78%
      0     0        5.3333   177       24.0000      Cuts: 83     1083   77.78%
*     0+    0                           19.0000        5.3333            71.93%
      0     0        cutoff             19.0000       19.0000     1083    0.00%
Elapsed time = 0.21 sec. (104.35 ticks, tree = 0.01 MB, solutions = 3)

Cover cuts applied:  1
Implied bound cuts applied:  8
Flow cuts applied:  3
Mixed integer rounding cuts applied:  9
Zero-half cuts applied:  67
Gomory fractional cuts applied:  16

Root node processing (before b&c):
  Real time             =    0.21 sec. (104.44 ticks)
Parallel b&c, 24 threads:
  Real time             =    0.00 sec. (0.00 ticks)
  Sync time (average)   =    0.00 sec.
  Wait time (average)   =    0.00 sec.
                          ------------
Total (root+branch&cut) =    0.21 sec. (104.44 ticks)

Solution status = Optimal
Solution LB = 19
Solution UB = 19
Runtime = 0.222287 seconds
	Command being timed: "/home/min/git_repos/CS598MEBProject/CNT-ILP/build/cnt -s 2 ./output/k6_n30/simC_c1_k6_n30_u3_s2_del02.input-right.cnp"
	User time (seconds): 1.02
	System time (seconds): 0.08
	Percent of CPU this job got: 460%
	Elapsed (wall clock) time (h:mm:ss or m:ss): 0:00.24
	Average shared text size (kbytes): 0
	Average unshared data size (kbytes): 0
	Average stack size (kbytes): 0
	Average total size (kbytes): 0
	Maximum resident set size (kbytes): 67204
	Average resident set size (kbytes): 0
	Major (requiring I/O) page faults: 0
	Minor (reclaiming a frame) page faults: 14352
	Voluntary context switches: 2473
	Involuntary context switches: 92
	Swaps: 0
	File system inputs: 0
	File system outputs: 16
	Socket messages sent: 0
	Socket messages received: 0
	Signals delivered: 0
	Page size (bytes): 4096
	Exit status: 0
